bottom = 1;
m = 13;
s = 4;
layout = array2d(1..17, 1..3, [27, 25, 21, 13, 6, 47, 28, 11, 31, 18, 33, 23,
    14, 5, 41, 40, 12, 26, 37, 2, 45, 20, 35, 51, 43, 32, 30, 22, 24,
    44, 48, 38, 34, 46, 15, 52, 50, 4, 29, 39, 7, 36, 8, 10, 16, 17,
    19, 49, 3, 9, 42]);
heap_size = 3;